Route #1: 3 86 93 103 64 66 75 91
Route #2: 15 90 44 59 18
Route #3: 89 1 23 27 52 88
Route #4: 63 9 124 82 113
Route #5: 67 30 43 84 25 39
Route #6: 60 35 57 13 56 62 77
Route #7: 20 19 6 29 45 22 54 7
Route #8: 119 80 98 68 106 5 123 53
Route #9: 87 121 94 111 4 70 127 47
Route #10: 24 14 102 128 122 115 117 74
Route #11: 81 36 126 71 26 107
Route #12: 16 114 100 108 72 112 32
Route #13: 12 73 49 95 116 92 104 10 79 76 85
Route #14: 65 105 11 61 55 40 41
Route #15: 110 17 101 58 48 2 34 21 33 46
Route #16: 125 31 97 69 42 96 99
Route #17: 83 109 51 120 8 37
Route #18: 38 118 28 50 78
Cost 31088
